% demand
num_movements = 17;
loading_factor = [1850, 850, 1250, 1400, 1650, 1650, 1850, 1050, 1350, 1050, 1850, 1450, 1050, 1850, 1350, 1300, 2000];
pickup_time = [0, 0, 0, 0, 0, 2, 3, 3, 3, 3, 4, 4, 4, 4, 5, 5, 5];
delivery_time = [3, 1, 3, 1, 3, 4, 4, 4, 4, 4, 5, 5, 5, 5, 6, 6, 6];

% transporter definition
total_capacity = 7000;
num_decks = 3;
capacity = [3000, 1000, 3000];

% ways out of decks
num_ways_out = 1;
paths_out = array3d(decks, ways_out, decks, [
% ways out of deck d1
2, 3, 0, 

% ways out of deck d2
3, 0, 0, 

% ways out of deck d3
0, 0, 0,	

]);

